experiments/sat_smt/run/sat-r/results/kevin.res
solved=true
solvingTime=64.817596435546875
nActions=11