experiments/sat_smt/run/sat-r/results/kevin.out
Timesteps: 1
s UNSATISFIABLE
real 0.15
user 0.01
sys 0.00
Timesteps: 2
s UNSATISFIABLE
real 0.20
user 0.05
sys 0.00
Timesteps: 3
s UNSATISFIABLE
real 0.16
user 0.08
sys 0.00
Timesteps: 4
s UNSATISFIABLE
real 0.42
user 0.23
sys 0.01
Timesteps: 5
s UNSATISFIABLE
real 0.87
user 0.73
sys 0.01
Timesteps: 6
s UNSATISFIABLE
real 1.56
user 1.40
sys 0.01
Timesteps: 7
s UNSATISFIABLE
real 2.00
user 1.79
sys 0.01
Timesteps: 8
s UNSATISFIABLE
real 3.89
user 3.67
sys 0.02
Timesteps: 9
s UNSATISFIABLE
real 9.49
user 9.20
sys 0.04
Timesteps: 10
s UNSATISFIABLE
real 21.70
user 20.93
sys 0.05
Timesteps: 11
s SATISFIABLE
real 25.00
user 24.20
sys 0.05
